# vtk DataFile Version 2.0
./output/uniaxialExtension_Manual/uniaxialExtension_Manual_0009.vtk
ASCII
DATASET UNSTRUCTURED_GRID

POINTS 8 float
       0.000000e+00       0.000000e+00       0.000000e+00 
       0.000000e+00       0.000000e+00       4.081141e-01 
       0.000000e+00       4.081141e-01       4.081141e-01 
       0.000000e+00       4.081141e-01       0.000000e+00 
       1.943745e+00       0.000000e+00       0.000000e+00 
       1.943745e+00       0.000000e+00       4.081141e-01 
       1.943745e+00       4.081141e-01       4.081141e-01 
       1.943745e+00       4.081141e-01       0.000000e+00 

CELLS 6 30
4 0 3 1 5 
4 5 1 2 3 
4 3 2 5 6 
4 3 0 4 5 
4 3 5 4 7 
4 3 6 5 7 

CELL_TYPES 6
10
10
10
10
10
10

POINT_DATA         8 
VECTORS Displacements float
       0.00000000e+00       0.00000000e+00       0.00000000e+00 
       0.00000000e+00       0.00000000e+00      -5.91885867e-01 
       0.00000000e+00      -5.91885867e-01      -5.91885867e-01 
       0.00000000e+00      -5.91885867e-01       0.00000000e+00 
       9.43744543e-01       0.00000000e+00       0.00000000e+00 
       9.43744543e-01       0.00000000e+00      -5.91885867e-01 
       9.43744543e-01      -5.91885867e-01      -5.91885867e-01 
       9.43744543e-01      -5.91885867e-01       0.00000000e+00 

CELL_DATA         6 
SCALARS Von_Mises float 1
LOOKUP_TABLE default
       1.38907142e+00 
       1.38907142e+00 
       1.38907142e+00 
       1.38907142e+00 
       1.38907142e+00 
       1.38907142e+00 

VECTORS vI float
       1.38907142e+00       0.00000000e+00       0.00000000e+00 
       1.38907142e+00       0.00000000e+00       0.00000000e+00 
       1.38907142e+00       0.00000000e+00       0.00000000e+00 
      -1.38907142e+00       0.00000000e+00      -8.29996133e-17 
       1.38907142e+00       0.00000000e+00       8.29996133e-17 
       1.38907142e+00       0.00000000e+00       0.00000000e+00 

VECTORS vII float
       0.00000000e+00       0.00000000e+00       1.24344979e-14 
       0.00000000e+00      -8.80484040e-15       8.80484040e-15 
       0.00000000e+00      -8.80484040e-15       8.80484040e-15 
       0.00000000e+00       1.25455202e-14      -7.49618274e-31 
       7.42984484e-31      -0.00000000e+00      -1.24344979e-14 
       0.00000000e+00      -8.80484040e-15       8.80484040e-15 

VECTORS vIII float
       0.00000000e+00       1.24344979e-14       0.00000000e+00 
      -0.00000000e+00      -8.78019514e-15      -8.78019514e-15 
      -0.00000000e+00      -8.78019514e-15      -8.78019514e-15 
      -7.36350694e-31       7.36350694e-31       1.23234756e-14 
       0.00000000e+00      -1.24344979e-14       0.00000000e+00 
      -0.00000000e+00      -8.78019514e-15      -8.78019514e-15 

SCALARS SigI float 1
LOOKUP_TABLE default
       1.38907142e+00 
       1.38907142e+00 
       1.38907142e+00 
       1.38907142e+00 
       1.38907142e+00 
       1.38907142e+00 

SCALARS SigII float 1
LOOKUP_TABLE default
       1.24344979e-14 
       1.24519247e-14 
       1.24519247e-14 
       1.25455202e-14 
       1.24344979e-14 
       1.24519247e-14 

SCALARS SigIII float 1
LOOKUP_TABLE default
       1.24344979e-14 
       1.24170710e-14 
       1.24170710e-14 
       1.23234756e-14 
       1.24344979e-14 
       1.24170710e-14 

