# vtk DataFile Version 2.0
./output/uniaxialExtension_Manual/uniaxialExtension_Manual_0001.vtk
ASCII
DATASET UNSTRUCTURED_GRID

POINTS 8 float
       0.000000e+00       0.000000e+00       0.000000e+00 
       0.000000e+00       0.000000e+00       9.233654e-01 
       0.000000e+00       9.233654e-01       9.233654e-01 
       0.000000e+00       9.233654e-01       0.000000e+00 
       1.221197e+00       0.000000e+00       0.000000e+00 
       1.221197e+00       0.000000e+00       9.233654e-01 
       1.221197e+00       9.233654e-01       9.233654e-01 
       1.221197e+00       9.233654e-01       0.000000e+00 

CELLS 6 30
4 0 3 1 5 
4 5 1 2 3 
4 3 2 5 6 
4 3 0 4 5 
4 3 5 4 7 
4 3 6 5 7 

CELL_TYPES 6
10
10
10
10
10
10

POINT_DATA         8 
VECTORS Displacements float
       0.00000000e+00       0.00000000e+00       0.00000000e+00 
       0.00000000e+00       0.00000000e+00      -7.66346356e-02 
       0.00000000e+00      -7.66346356e-02      -7.66346356e-02 
       0.00000000e+00      -7.66346356e-02       0.00000000e+00 
       2.21196686e-01       0.00000000e+00       0.00000000e+00 
       2.21196686e-01       0.00000000e+00      -7.66346356e-02 
       2.21196686e-01      -7.66346356e-02      -7.66346356e-02 
       2.21196686e-01      -7.66346356e-02       0.00000000e+00 

CELL_DATA         6 
SCALARS Von_Mises float 1
LOOKUP_TABLE default
       2.45660673e-01 
       2.45660673e-01 
       2.45660673e-01 
       2.45660673e-01 
       2.45660673e-01 
       2.45660673e-01 

VECTORS vI float
       2.45660673e-01       0.00000000e+00       0.00000000e+00 
       2.45660673e-01       0.00000000e+00       0.00000000e+00 
      -2.45660673e-01       4.92856484e-18       0.00000000e+00 
       2.45660673e-01       0.00000000e+00       0.00000000e+00 
      -2.45660673e-01      -8.10798014e-18      -0.00000000e+00 
       2.45660673e-01      -1.38777878e-17       1.46004309e-17 

VECTORS vII float
       0.00000000e+00       0.00000000e+00       0.00000000e+00 
       0.00000000e+00       0.00000000e+00       0.00000000e+00 
       0.00000000e+00       0.00000000e+00       2.77555756e-17 
       0.00000000e+00       0.00000000e+00       0.00000000e+00 
       0.00000000e+00       0.00000000e+00       1.38777878e-17 
      -3.51956805e-50      -6.87382622e-34      -6.11732354e-35 

VECTORS vIII float
       0.00000000e+00       0.00000000e+00       1.38777878e-17 
       0.00000000e+00       0.00000000e+00       1.38777878e-17 
      -5.56845963e-34      -2.77555756e-17      -0.00000000e+00 
       0.00000000e+00       0.00000000e+00       1.38777878e-17 
       4.58033541e-34      -1.38777878e-17       0.00000000e+00 
       8.11419776e-49       1.12024491e-33      -1.25878071e-32 

SCALARS SigI float 1
LOOKUP_TABLE default
       2.45660673e-01 
       2.45660673e-01 
       2.45660673e-01 
       2.45660673e-01 
       2.45660673e-01 
       2.45660673e-01 

SCALARS SigII float 1
LOOKUP_TABLE default
       0.00000000e+00 
       0.00000000e+00 
      -2.77555756e-17 
       0.00000000e+00 
      -1.38777878e-17 
      -6.90099292e-34 

SCALARS SigIII float 1
LOOKUP_TABLE default
      -1.38777878e-17 
      -1.38777878e-17 
      -2.77555756e-17 
      -1.38777878e-17 
      -1.38777878e-17 
      -1.26375565e-32 

