# vtk DataFile Version 2.0
./output/uniaxialExtension_Manual/uniaxialExtension_Manual_0006.vtk
ASCII
DATASET UNSTRUCTURED_GRID

POINTS 8 float
       0.000000e+00       0.000000e+00       0.000000e+00 
       0.000000e+00       0.000000e+00       6.184277e-01 
       0.000000e+00       6.184277e-01       6.184277e-01 
       0.000000e+00       6.184277e-01       0.000000e+00 
       1.748854e+00       0.000000e+00       0.000000e+00 
       1.748854e+00       0.000000e+00       6.184277e-01 
       1.748854e+00       6.184277e-01       6.184277e-01 
       1.748854e+00       6.184277e-01       0.000000e+00 

CELLS 6 30
4 0 3 1 5 
4 5 1 2 3 
4 3 2 5 6 
4 3 0 4 5 
4 3 5 4 7 
4 3 6 5 7 

CELL_TYPES 6
10
10
10
10
10
10

POINT_DATA         8 
VECTORS Displacements float
       0.00000000e+00       0.00000000e+00       0.00000000e+00 
       0.00000000e+00       0.00000000e+00      -3.81572332e-01 
       0.00000000e+00      -3.81572332e-01      -3.81572332e-01 
       0.00000000e+00      -3.81572332e-01       0.00000000e+00 
       7.48854120e-01       0.00000000e+00       0.00000000e+00 
       7.48854120e-01       0.00000000e+00      -3.81572332e-01 
       7.48854120e-01      -3.81572332e-01      -3.81572332e-01 
       7.48854120e-01      -3.81572332e-01       0.00000000e+00 

CELL_DATA         6 
SCALARS Von_Mises float 1
LOOKUP_TABLE default
       1.02924537e+00 
       1.02924537e+00 
       1.02924537e+00 
       1.02924537e+00 
       1.02924537e+00 
       1.02924537e+00 

VECTORS vI float
       1.02924537e+00       0.00000000e+00       0.00000000e+00 
       1.02924537e+00       0.00000000e+00       0.00000000e+00 
       1.02924537e+00       0.00000000e+00       0.00000000e+00 
       1.02924537e+00       0.00000000e+00       0.00000000e+00 
       1.02924537e+00       0.00000000e+00       0.00000000e+00 
       1.02924537e+00       0.00000000e+00       0.00000000e+00 

VECTORS vII float
       0.00000000e+00       0.00000000e+00       0.00000000e+00 
       0.00000000e+00       0.00000000e+00       0.00000000e+00 
       0.00000000e+00       0.00000000e+00       0.00000000e+00 
       0.00000000e+00       0.00000000e+00       0.00000000e+00 
       0.00000000e+00       0.00000000e+00       0.00000000e+00 
       0.00000000e+00       0.00000000e+00       0.00000000e+00 

VECTORS vIII float
       0.00000000e+00       0.00000000e+00       0.00000000e+00 
       0.00000000e+00       0.00000000e+00       0.00000000e+00 
       0.00000000e+00       0.00000000e+00       0.00000000e+00 
       0.00000000e+00       0.00000000e+00       0.00000000e+00 
       0.00000000e+00       0.00000000e+00       0.00000000e+00 
       0.00000000e+00       0.00000000e+00       0.00000000e+00 

SCALARS SigI float 1
LOOKUP_TABLE default
       1.02924537e+00 
       1.02924537e+00 
       1.02924537e+00 
       1.02924537e+00 
       1.02924537e+00 
       1.02924537e+00 

SCALARS SigII float 1
LOOKUP_TABLE default
       0.00000000e+00 
       0.00000000e+00 
       0.00000000e+00 
       0.00000000e+00 
       0.00000000e+00 
       0.00000000e+00 

SCALARS SigIII float 1
LOOKUP_TABLE default
       0.00000000e+00 
       0.00000000e+00 
       0.00000000e+00 
       0.00000000e+00 
       0.00000000e+00 
       0.00000000e+00 

