# vtk DataFile Version 2.0
./output/uniaxialExtension_Manual/uniaxialExtension_Manual_0005.vtk
ASCII
DATASET UNSTRUCTURED_GRID

POINTS 8 float
       0.000000e+00       0.000000e+00       0.000000e+00 
       0.000000e+00       0.000000e+00       6.794305e-01 
       0.000000e+00       6.794305e-01       6.794305e-01 
       0.000000e+00       6.794305e-01       0.000000e+00 
       1.671700e+00       0.000000e+00       0.000000e+00 
       1.671700e+00       0.000000e+00       6.794305e-01 
       1.671700e+00       6.794305e-01       6.794305e-01 
       1.671700e+00       6.794305e-01       0.000000e+00 

CELLS 6 30
4 0 3 1 5 
4 5 1 2 3 
4 3 2 5 6 
4 3 0 4 5 
4 3 5 4 7 
4 3 6 5 7 

CELL_TYPES 6
10
10
10
10
10
10

POINT_DATA         8 
VECTORS Displacements float
       0.00000000e+00       0.00000000e+00       0.00000000e+00 
       0.00000000e+00       0.00000000e+00      -3.20569465e-01 
       0.00000000e+00      -3.20569465e-01      -3.20569465e-01 
       0.00000000e+00      -3.20569465e-01       0.00000000e+00 
       6.71699882e-01       0.00000000e+00       0.00000000e+00 
       6.71699882e-01       0.00000000e+00      -3.20569465e-01 
       6.71699882e-01      -3.20569465e-01      -3.20569465e-01 
       6.71699882e-01      -3.20569465e-01       0.00000000e+00 

CELL_DATA         6 
SCALARS Von_Mises float 1
LOOKUP_TABLE default
       8.97290247e-01 
       8.97290247e-01 
       8.97290247e-01 
       8.97290247e-01 
       8.97290247e-01 
       8.97290247e-01 

VECTORS vI float
       8.97290247e-01       0.00000000e+00       0.00000000e+00 
       8.97290247e-01       0.00000000e+00       0.00000000e+00 
       8.97290247e-01       0.00000000e+00       0.00000000e+00 
       8.97290247e-01       0.00000000e+00       0.00000000e+00 
       8.97290247e-01       0.00000000e+00       0.00000000e+00 
       8.97290247e-01       0.00000000e+00       0.00000000e+00 

VECTORS vII float
       0.00000000e+00       0.00000000e+00       2.77555756e-17 
       0.00000000e+00       0.00000000e+00       2.77555756e-17 
       0.00000000e+00       0.00000000e+00       2.77555756e-17 
       0.00000000e+00       0.00000000e+00       2.77555756e-17 
       0.00000000e+00       0.00000000e+00       2.77555756e-17 
       0.00000000e+00       0.00000000e+00       2.77555756e-17 

VECTORS vIII float
       0.00000000e+00       2.77555756e-17       0.00000000e+00 
       0.00000000e+00       2.77555756e-17       0.00000000e+00 
       0.00000000e+00       2.77555756e-17       0.00000000e+00 
       0.00000000e+00       2.77555756e-17       0.00000000e+00 
       0.00000000e+00       2.77555756e-17       0.00000000e+00 
       0.00000000e+00       2.77555756e-17       0.00000000e+00 

SCALARS SigI float 1
LOOKUP_TABLE default
       8.97290247e-01 
       8.97290247e-01 
       8.97290247e-01 
       8.97290247e-01 
       8.97290247e-01 
       8.97290247e-01 

SCALARS SigII float 1
LOOKUP_TABLE default
       2.77555756e-17 
       2.77555756e-17 
       2.77555756e-17 
       2.77555756e-17 
       2.77555756e-17 
       2.77555756e-17 

SCALARS SigIII float 1
LOOKUP_TABLE default
       2.77555756e-17 
       2.77555756e-17 
       2.77555756e-17 
       2.77555756e-17 
       2.77555756e-17 
       2.77555756e-17 

