# vtk DataFile Version 2.0
./output/uniaxialExtension_Manual/uniaxialExtension_Manual_0010.vtk
ASCII
DATASET UNSTRUCTURED_GRID

POINTS 8 float
       0.000000e+00       0.000000e+00       0.000000e+00 
       0.000000e+00       0.000000e+00       3.162278e-01 
       0.000000e+00       3.162278e-01       3.162278e-01 
       0.000000e+00       3.162278e-01       0.000000e+00 
       2.000000e+00       0.000000e+00       0.000000e+00 
       2.000000e+00       0.000000e+00       3.162278e-01 
       2.000000e+00       3.162278e-01       3.162278e-01 
       2.000000e+00       3.162278e-01       0.000000e+00 

CELLS 6 30
4 0 3 1 5 
4 5 1 2 3 
4 3 2 5 6 
4 3 0 4 5 
4 3 5 4 7 
4 3 6 5 7 

CELL_TYPES 6
10
10
10
10
10
10

POINT_DATA         8 
VECTORS Displacements float
       0.00000000e+00       0.00000000e+00       0.00000000e+00 
       0.00000000e+00       0.00000000e+00      -6.83772234e-01 
       0.00000000e+00      -6.83772234e-01      -6.83772234e-01 
       0.00000000e+00      -6.83772234e-01       0.00000000e+00 
       1.00000000e+00       0.00000000e+00       0.00000000e+00 
       1.00000000e+00       0.00000000e+00      -6.83772234e-01 
       1.00000000e+00      -6.83772234e-01      -6.83772234e-01 
       1.00000000e+00      -6.83772234e-01       0.00000000e+00 

CELL_DATA         6 
SCALARS Von_Mises float 1
LOOKUP_TABLE default
       1.50000000e+00 
       1.50000000e+00 
       1.50000000e+00 
       1.50000000e+00 
       1.50000000e+00 
       1.50000000e+00 

VECTORS vI float
       1.50000000e+00       0.00000000e+00       0.00000000e+00 
       1.50000000e+00       0.00000000e+00       0.00000000e+00 
       1.50000000e+00       0.00000000e+00       0.00000000e+00 
       1.50000000e+00       0.00000000e+00       0.00000000e+00 
       1.50000000e+00       0.00000000e+00       0.00000000e+00 
       1.50000000e+00       0.00000000e+00       0.00000000e+00 

VECTORS vII float
       0.00000000e+00       0.00000000e+00       4.38699077e-12 
       0.00000000e+00      -3.10208047e-12       3.10208047e-12 
       0.00000000e+00      -3.10208047e-12       3.10208047e-12 
       0.00000000e+00       0.00000000e+00       4.38699077e-12 
       0.00000000e+00       0.00000000e+00       4.38699077e-12 
       0.00000000e+00      -3.10208047e-12       3.10208047e-12 

VECTORS vIII float
       0.00000000e+00       4.38699077e-12       0.00000000e+00 
      -0.00000000e+00      -3.10206137e-12      -3.10206137e-12 
      -0.00000000e+00      -3.10206137e-12      -3.10206137e-12 
       0.00000000e+00       4.38699077e-12       0.00000000e+00 
       0.00000000e+00       4.38699077e-12       0.00000000e+00 
      -0.00000000e+00      -3.10206137e-12      -3.10206137e-12 

SCALARS SigI float 1
LOOKUP_TABLE default
       1.50000000e+00 
       1.50000000e+00 
       1.50000000e+00 
       1.50000000e+00 
       1.50000000e+00 
       1.50000000e+00 

SCALARS SigII float 1
LOOKUP_TABLE default
       4.38699077e-12 
       4.38700427e-12 
       4.38700427e-12 
       4.38699077e-12 
       4.38699077e-12 
       4.38700427e-12 

SCALARS SigIII float 1
LOOKUP_TABLE default
       4.38699077e-12 
       4.38697727e-12 
       4.38697727e-12 
       4.38699077e-12 
       4.38699077e-12 
       4.38697727e-12 

