# vtk DataFile Version 2.0
./output/uniaxialExtension_Manual/uniaxialExtension_Manual_0003.vtk
ASCII
DATASET UNSTRUCTURED_GRID

POINTS 8 float
       0.000000e+00       0.000000e+00       0.000000e+00 
       0.000000e+00       0.000000e+00       7.980031e-01 
       0.000000e+00       7.980031e-01       7.980031e-01 
       0.000000e+00       7.980031e-01       0.000000e+00 
       1.486821e+00       0.000000e+00       0.000000e+00 
       1.486821e+00       0.000000e+00       7.980031e-01 
       1.486821e+00       7.980031e-01       7.980031e-01 
       1.486821e+00       7.980031e-01       0.000000e+00 

CELLS 6 30
4 0 3 1 5 
4 5 1 2 3 
4 3 2 5 6 
4 3 0 4 5 
4 3 5 4 7 
4 3 6 5 7 

CELL_TYPES 6
10
10
10
10
10
10

POINT_DATA         8 
VECTORS Displacements float
       0.00000000e+00       0.00000000e+00       0.00000000e+00 
       0.00000000e+00       0.00000000e+00      -2.01996866e-01 
       0.00000000e+00      -2.01996866e-01      -2.01996866e-01 
       0.00000000e+00      -2.01996866e-01       0.00000000e+00 
       4.86820991e-01       0.00000000e+00       0.00000000e+00 
       4.86820991e-01       0.00000000e+00      -2.01996866e-01 
       4.86820991e-01      -2.01996866e-01      -2.01996866e-01 
       4.86820991e-01      -2.01996866e-01       0.00000000e+00 

CELL_DATA         6 
SCALARS Von_Mises float 1
LOOKUP_TABLE default
       6.05318330e-01 
       6.05318330e-01 
       6.05318330e-01 
       6.05318330e-01 
       6.05318330e-01 
       6.05318330e-01 

VECTORS vI float
       6.05318330e-01       0.00000000e+00       0.00000000e+00 
       6.05318330e-01       0.00000000e+00       0.00000000e+00 
       6.05318330e-01       8.51886013e-18       0.00000000e+00 
       6.05318330e-01       0.00000000e+00       0.00000000e+00 
      -6.05318330e-01      -8.51886013e-18      -0.00000000e+00 
       6.05318330e-01       8.51886013e-18       0.00000000e+00 

VECTORS vII float
       0.00000000e+00       0.00000000e+00       2.77555756e-17 
       0.00000000e+00       1.57422955e-17       5.57367425e-17 
       9.13391895e-34      -6.49022110e-17      -6.49022110e-17 
       0.00000000e+00       0.00000000e+00       2.77555756e-17 
       1.17184226e-33      -8.32667268e-17       0.00000000e+00 
       9.13391895e-34      -6.49022110e-17      -6.49022110e-17 

VECTORS vIII float
       0.00000000e+00       2.77555756e-17       0.00000000e+00 
       0.00000000e+00      -2.43951448e-17       6.89016905e-18 
      -7.43843319e-34       5.28547234e-17      -5.28547234e-17 
       0.00000000e+00       2.77555756e-17       0.00000000e+00 
       0.00000000e+00       0.00000000e+00       5.55111512e-17 
      -7.43843319e-34       5.28547234e-17      -5.28547234e-17 

SCALARS SigI float 1
LOOKUP_TABLE default
       6.05318330e-01 
       6.05318330e-01 
       6.05318330e-01 
       6.05318330e-01 
       6.05318330e-01 
       6.05318330e-01 

SCALARS SigII float 1
LOOKUP_TABLE default
       2.77555756e-17 
       5.79172196e-17 
       9.17855870e-17 
       2.77555756e-17 
       8.32667268e-17 
       9.17855870e-17 

SCALARS SigIII float 1
LOOKUP_TABLE default
       2.77555756e-17 
       2.53495072e-17 
       7.47478667e-17 
       2.77555756e-17 
       5.55111512e-17 
       7.47478667e-17 

